1000
300 300
1 210 311
2 210 903
3 210 72
4 209 641
5 209 55
6 209 695
7 209 948
8 209 816
9 208 859
10 208 31
11 208 638
12 208 835
13 208 411
14 208 628
15 208 442
16 207 161
17 207 801
18 207 401
19 207 891
20 207 250
21 206 113
22 206 666
23 205 352
24 205 116
25 205 728
26 205 191
27 205 793
28 204 143
29 204 435
30 204 651
31 204 619
32 204 490
33 203 960
34 203 390
35 203 195
36 203 918
37 203 859
38 203 294
39 203 169
40 203 470
41 202 14
42 202 802
43 202 915
44 202 574
45 202 116
46 202 161
47 202 277
48 201 516
49 201 926
50 201 411
51 201 716
52 200 1
53 200 794
54 200 84
55 200 715
56 200 325
57 200 301
58 200 379
59 200 851
60 199 270
61 199 95
62 199 964
63 199 218
64 199 522
65 199 975
66 199 865
67 199 519
68 198 723
69 198 15
70 198 560
71 198 536
72 198 402
73 198 464
74 198 623
75 197 223
76 197 245
77 197 76
78 197 678
79 197 878
80 196 282
81 196 203
82 196 304
83 196 174
84 196 109
85 196 339
86 195 380
87 195 229
88 195 958
89 195 55
90 195 446
91 195 868
92 195 415
93 194 511
94 194 185
95 194 460
96 194 182
97 194 409
98 194 190
99 194 580
100 193 954
101 192 336
102 192 474
103 191 461
104 191 285
105 191 631
106 191 776
107 191 46
108 190 72
109 190 661
110 190 419
111 190 336
112 190 67
113 189 504
114 189 171
115 189 815
116 189 714
117 189 816
118 189 127
119 189 298
120 188 998
121 188 268
122 188 872
123 188 570
124 187 866
125 187 170
126 187 156
127 187 121
128 187 14
129 186 457
130 186 35
131 186 989
132 186 817
133 186 763
134 186 295
135 186 185
136 186 695
137 186 315
138 186 778
139 185 415
140 185 572
141 185 220
142 185 648
143 184 368
144 184 146
145 183 522
146 183 680
147 183 546
148 183 427
149 183 238
150 183 125
151 183 707
152 182 691
153 182 914
154 182 687
155 181 624
156 181 679
157 181 379
158 181 361
159 181 268
160 181 947
161 181 233
162 181 786
163 180 381
164 180 181
165 179 564
166 179 307
167 179 397
168 179 646
169 179 210
170 179 993
171 179 511
172 178 557
173 178 70
174 178 189
175 178 52
176 178 28
177 178 170
178 178 221
179 178 680
180 178 745
181 178 645
182 178 754
183 178 722
184 177 409
185 177 636
186 177 223
187 177 517
188 177 86
189 177 843
190 177 526
191 177 71
192 177 435
193 176 639
194 176 225
195 176 581
196 176 569
197 176 770
198 176 879
199 176 905
200 175 91
201 175 217
202 175 788
203 175 942
204 174 609
205 174 652
206 174 932
207 174 933
208 174 716
209 174 235
210 173 144
211 173 73
212 173 344
213 173 800
214 173 652
215 172 636
216 172 183
217 172 782
218 172 50
219 171 344
220 171 269
221 171 190
222 170 856
223 170 854
224 170 690
225 169 775
226 169 957
227 169 693
228 169 481
229 169 402
230 168 822
231 167 970
232 167 915
233 167 328
234 167 354
235 167 904
236 167 525
237 166 919
238 166 185
239 166 820
240 166 762
241 166 697
242 166 1000
243 165 854
244 165 271
245 165 625
246 165 618
247 164 298
248 164 411
249 164 391
250 164 582
251 164 523
252 164 223
253 164 720
254 163 586
255 163 799
256 163 657
257 163 231
258 163 613
259 162 974
260 162 423
261 162 179
262 162 374
263 162 288
264 161 428
265 161 123
266 161 859
267 161 241
268 160 374
269 160 807
270 160 115
271 160 589
272 160 296
273 160 360
274 159 511
275 159 812
276 159 533
277 159 932
278 158 885
279 158 286
280 158 908
281 158 250
282 158 328
283 158 856
284 158 431
285 157 621
286 157 796
287 157 592
288 157 920
289 157 232
290 157 275
291 157 472
292 156 47
293 156 379
294 156 937
295 156 887
296 156 95
297 155 241
298 155 158
299 155 566
300 155 151
301 154 235
302 153 342
303 153 563
304 153 762
305 153 440
306 152 795
307 152 879
308 152 842
309 152 264
310 152 807
311 152 914
312 152 378
313 151 525
314 151 1000
315 151 489
316 151 577
317 151 83
318 150 81
319 150 707
320 150 755
321 150 993
322 149 869
323 149 823
324 149 290
325 148 931
326 148 678
327 148 56
328 148 682
329 147 442
330 147 126
331 147 142
332 146 193
333 146 246
334 146 419
335 146 230
336 146 75
337 146 286
338 146 404
339 145 348
340 145 914
341 145 546
342 145 143
343 144 590
344 144 347
345 144 533
346 144 899
347 144 79
348 144 445
349 143 473
350 143 173
351 143 329
352 143 744
353 143 135
354 143 84
355 142 176
356 141 59
357 141 957
358 141 704
359 141 872
360 141 518
361 141 577
362 140 385
363 140 161
364 140 406
365 139 63
366 139 13
367 138 938
368 138 284
369 138 804
370 138 841
371 138 17
372 137 718
373 136 216
374 136 535
375 136 67
376 136 434
377 136 515
378 136 812
379 136 691
380 136 884
381 136 341
382 136 415
383 135 233
384 135 192
385 135 400
386 135 43
387 135 72
388 134 602
389 134 789
390 134 226
391 133 913
392 133 389
393 133 613
394 133 243
395 133 613
396 133 822
397 133 382
398 133 485
399 133 639
400 133 4
401 132 352
402 132 394
403 132 325
404 132 105
405 132 397
406 132 921
407 132 5
408 132 180
409 131 380
410 131 329
411 131 928
412 131 745
413 131 115
414 131 489
415 131 49
416 131 215
417 130 850
418 130 363
419 130 198
420 130 316
421 130 35
422 130 76
423 130 819
424 129 265
425 129 318
426 129 475
427 129 333
428 129 146
429 128 261
430 127 993
431 127 299
432 127 406
433 126 735
434 126 840
435 126 999
436 126 845
437 126 299
438 125 65
439 125 827
440 124 834
441 124 345
442 124 992
443 124 473
444 124 868
445 124 92
446 123 964
447 123 282
448 123 493
449 122 674
450 122 436
451 122 909
452 121 875
453 121 979
454 121 499
455 121 647
456 120 879
457 120 903
458 120 208
459 120 709
460 120 805
461 120 962
462 120 531
463 120 901
464 120 6
465 119 593
466 119 139
467 119 723
468 119 901
469 119 679
470 118 127
471 118 542
472 118 964
473 118 806
474 118 83
475 117 544
476 117 383
477 117 38
478 117 709
479 117 629
480 116 587
481 116 638
482 116 865
483 116 972
484 115 782
485 115 188
486 115 800
487 115 566
488 114 401
489 114 627
490 114 365
491 114 667
492 114 110
493 114 21
494 114 650
495 114 640
496 114 221
497 113 549
498 113 905
499 113 32
500 113 608
501 113 996
502 113 352
503 112 922
504 112 1000
505 112 943
506 112 781
507 111 39
508 111 208
509 111 950
510 111 301
511 111 523
512 110 916
513 110 200
514 110 706
515 110 748
516 110 244
517 110 168
518 110 378
519 110 448
520 110 593
521 109 299
522 109 692
523 109 528
524 109 656
525 109 865
526 109 752
527 109 398
528 108 525
529 108 251
530 108 13
531 108 553
532 108 406
533 108 391
534 108 736
535 107 486
536 107 704
537 107 257
538 107 49
539 106 60
540 106 834
541 106 720
542 106 503
543 105 12
544 105 107
545 105 44
546 105 244
547 105 265
548 105 324
549 105 712
550 105 9
551 105 889
552 105 548
553 105 361
554 104 459
555 104 115
556 104 769
557 104 368
558 104 19
559 103 781
560 103 50
561 103 183
562 103 318
563 103 401
564 103 667
565 102 101
566 102 617
567 102 108
568 102 19
569 102 164
570 102 347
571 102 504
572 102 687
573 102 936
574 102 478
575 101 721
576 101 187
577 101 403
578 101 138
579 100 356
580 100 815
581 100 605
582 100 195
583 100 619
584 100 266
585 100 757
586 99 766
587 99 798
588 99 75
589 99 119
590 99 932
591 99 177
592 99 608
593 99 384
594 99 420
595 98 343
596 98 821
597 98 637
598 97 941
599 97 197
600 97 488
601 97 718
602 97 438
603 97 240
604 97 803
605 97 212
606 97 333
607 97 238
608 97 885
609 96 468
610 96 854
611 96 949
612 96 503
613 96 140
614 96 644
615 96 890
616 96 829
617 95 338
618 95 51
619 95 603
620 95 454
621 95 214
622 95 906
623 95 910
624 95 388
625 95 363
626 94 260
627 94 191
628 93 401
629 93 996
630 92 37
631 92 568
632 92 943
633 92 433
634 92 400
635 92 787
636 92 358
637 91 810
638 91 768
639 91 545
640 91 447
641 91 615
642 91 854
643 91 345
644 91 270
645 90 371
646 90 205
647 90 647
648 90 26
649 89 764
650 89 811
651 89 711
652 89 443
653 89 203
654 88 444
655 88 636
656 88 139
657 88 278
658 88 632
659 88 323
660 87 686
661 87 726
662 87 589
663 87 456
664 86 582
665 86 939
666 86 977
667 86 258
668 86 502
669 86 114
670 86 42
671 86 935
672 86 591
673 86 454
674 86 247
675 85 987
676 85 246
677 85 120
678 85 149
679 85 752
680 85 219
681 84 133
682 84 674
683 84 897
684 84 414
685 84 310
686 84 740
687 83 114
688 83 734
689 83 150
690 83 391
691 83 526
692 83 472
693 82 244
694 82 285
695 82 534
696 81 274
697 81 308
698 81 282
699 81 230
700 81 900
701 80 298
702 80 698
703 80 380
704 80 906
705 79 449
706 79 344
707 79 877
708 79 157
709 79 202
710 79 372
711 78 679
712 78 659
713 78 729
714 78 227
715 78 130
716 78 59
717 77 812
718 77 507
719 77 521
720 77 705
721 77 701
722 77 722
723 77 34
724 77 821
725 77 539
726 76 832
727 76 283
728 76 11
729 76 206
730 76 841
731 76 97
732 75 166
733 75 379
734 75 280
735 75 445
736 75 757
737 75 772
738 75 573
739 74 700
740 74 486
741 74 525
742 74 982
743 74 743
744 74 856
745 73 980
746 73 916
747 73 996
748 73 41
749 73 400
750 73 9
751 73 809
752 73 270
753 73 799
754 73 713
755 72 954
756 72 572
757 72 763
758 72 847
759 72 874
760 72 463
761 71 944
762 71 334
763 71 67
764 71 670
765 71 314
766 71 190
767 71 129
768 71 57
769 71 205
770 70 203
771 70 763
772 70 532
773 70 865
774 70 732
775 70 582
776 69 715
777 69 978
778 69 681
779 69 481
780 69 491
781 69 753
782 69 696
783 69 393
784 68 253
785 68 674
786 68 735
787 68 606
788 67 687
789 67 219
790 67 707
791 67 14
792 67 567
793 66 32
794 66 173
795 66 119
796 66 591
797 66 686
798 66 15
799 66 218
800 66 385
801 66 240
802 65 971
803 65 550
804 65 913
805 65 511
806 65 552
807 65 913
808 65 591
809 65 617
810 64 796
811 64 66
812 64 611
813 64 809
814 63 544
815 63 614
816 63 807
817 63 990
818 62 461
819 62 282
820 62 744
821 62 308
822 62 962
823 62 302
824 61 923
825 61 946
826 61 939
827 61 714
828 61 414
829 61 624
830 61 775
831 61 63
832 60 876
833 60 109
834 60 585
835 59 38
836 59 859
837 59 755
838 59 810
839 59 502
840 58 240
841 58 84
842 58 19
843 58 878
844 58 969
845 58 73
846 58 265
847 58 198
848 57 77
849 57 244
850 57 988
851 57 648
852 57 382
853 57 581
854 56 182
855 56 497
856 56 591
857 56 532
858 55 809
859 55 443
860 55 669
861 55 751
862 55 423
863 55 177
864 55 216
865 55 986
866 55 919
867 55 55
868 54 480
869 54 680
870 54 263
871 53 152
872 53 420
873 53 681
874 53 590
875 53 664
876 53 557
877 53 901
878 52 522
879 52 493
880 52 340
881 52 644
882 52 783
883 51 543
884 51 591
885 51 64
886 51 224
887 51 403
888 50 372
889 50 133
890 50 370
891 50 538
892 50 521
893 50 947
894 50 614
895 49 703
896 49 761
897 49 238
898 49 824
899 49 175
900 49 184
901 49 267
902 48 194
903 48 765
904 47 551
905 47 981
906 47 561
907 47 69
908 47 890
909 46 868
910 46 787
911 46 650
912 46 760
913 45 991
914 45 1000
915 44 965
916 44 916
917 44 458
918 43 182
919 43 838
920 43 374
921 43 840
922 43 890
923 42 812
924 42 867
925 42 978
926 42 527
927 42 434
928 41 511
929 41 572
930 41 341
931 41 521
932 41 917
933 41 173
934 41 576
935 40 921
936 40 506
937 40 731
938 40 52
939 40 754
940 40 647
941 40 827
942 40 991
943 39 96
944 39 429
945 39 895
946 38 15
947 38 418
948 38 109
949 38 653
950 38 360
951 38 845
952 38 536
953 37 162
954 37 195
955 37 6
956 37 5
957 37 660
958 36 134
959 36 165
960 36 909
961 36 23
962 36 803
963 35 431
964 35 835
965 35 819
966 35 443
967 35 309
968 35 199
969 34 255
970 34 660
971 34 447
972 34 987
973 34 389
974 34 164
975 34 657
976 34 949
977 34 632
978 33 930
979 33 43
980 33 252
981 33 841
982 33 781
983 32 41
984 32 321
985 32 283
986 31 613
987 31 732
988 31 699
989 31 356
990 31 49
991 30 921
992 30 613
993 30 614
994 30 534
995 30 144
996 30 923
997 30 376
998 30 270
999 30 870
1000 30 621
